************************************************************************
file with basedata            : j9046_.bas
initial value random generator: 611410742
************************************************************************
projects                      :  1
jobs (incl. supersource/sink ):  92
horizon                       :  453
RESOURCES
  - renewable                 :  4   R
  - nonrenewable              :  0   N
  - doubly constrained        :  0   D
************************************************************************
PROJECT INFORMATION:
pronr.  #jobs rel.date duedate tardcost  MPM-Time
    1     90      0       89       63       89
************************************************************************
PRECEDENCE RELATIONS:
jobnr.    #modes  #successors   successors
   1        1          3           2   3   4
   2        1          3           8  17  19
   3        1          3           5   7  11
   4        1          3          10  13  21
   5        1          3           6  39  49
   6        1          3           9  20  22
   7        1          3          14  51  54
   8        1          3          15  24  29
   9        1          3          18  26  55
  10        1          3          12  30  66
  11        1          3          16  37  52
  12        1          3          15  25  32
  13        1          3          15  22  49
  14        1          1          42
  15        1          3          20  41  61
  16        1          1          51
  17        1          3          28  32  41
  18        1          3          23  44  47
  19        1          3          30  34  40
  20        1          3          26  72  77
  21        1          3          27  40  48
  22        1          3          32  50  78
  23        1          1          24
  24        1          3          37  51  68
  25        1          3          36  56  85
  26        1          3          44  67  86
  27        1          3          31  35  45
  28        1          3          48  57  63
  29        1          3          42  43  53
  30        1          3          31  39  61
  31        1          3          33  47  67
  32        1          2          46  81
  33        1          2          49  63
  34        1          2          47  62
  35        1          3          37  50  89
  36        1          1          38
  37        1          1          59
  38        1          2          50  71
  39        1          3          41  52  77
  40        1          2          56  59
  41        1          3          44  53  55
  42        1          3          62  65  82
  43        1          2          48  89
  44        1          1          89
  45        1          1          46
  46        1          2          61  87
  47        1          2          90  91
  48        1          2          55  58
  49        1          3          64  65  83
  50        1          1          53
  51        1          1          77
  52        1          3          59  69  70
  53        1          3          64  69  75
  54        1          2          58  63
  55        1          1          68
  56        1          2          69  71
  57        1          3          66  67  79
  58        1          3          60  70  73
  59        1          3          62  71  74
  60        1          2          65  66
  61        1          1          70
  62        1          3          64  73  78
  63        1          3          68  73  74
  64        1          1          76
  65        1          3          72  74  75
  66        1          1          76
  67        1          1          87
  68        1          2          72  83
  69        1          2          82  86
  70        1          2          76  80
  71        1          2          75  82
  72        1          1          91
  73        1          1          81
  74        1          2          78  91
  75        1          2          84  87
  76        1          1          84
  77        1          3          79  80  81
  78        1          2          79  80
  79        1          1          85
  80        1          1          84
  81        1          1          83
  82        1          1          88
  83        1          1          85
  84        1          1          86
  85        1          1          90
  86        1          1          88
  87        1          1          88
  88        1          1          90
  89        1          1          92
  90        1          1          92
  91        1          1          92
  92        1          0        
************************************************************************
REQUESTS/DURATIONS:
jobnr. mode duration  R 1  R 2  R 3  R 4
------------------------------------------------------------------------
  1      1     0       0    0    0    0
  2      1     3       4    4    9    1
  3      1     1       9    2    9    9
  4      1     5       7    5    5   10
  5      1     8       5    6    8    6
  6      1     3       2    9    6    8
  7      1     8       6    5    9    9
  8      1     1       3    5    8    4
  9      1     7       8    8    7    4
 10      1     7       1    6    6    8
 11      1     9       5    7    2    4
 12      1    10       4    4    7    1
 13      1     7       4    9    3    4
 14      1    10       5    4    3    2
 15      1     6       3    9    6    1
 16      1     8       6    9    1    1
 17      1     5       8    8    2   10
 18      1     8       8    1   10    5
 19      1     6       6    6    4    8
 20      1     1       5    8   10   10
 21      1     7       8    5    2    1
 22      1    10       4    4    1    4
 23      1     4       5    1    7    7
 24      1    10       2    2    5    7
 25      1     3       1    3    8    7
 26      1    10       6    1    8   10
 27      1     3       7    9    7    3
 28      1     5       3    7    4    6
 29      1     5       9    6    3    8
 30      1     3       5    7    7    5
 31      1     5       5    3    2    8
 32      1     6       1    3    9   10
 33      1     8       8    4    7    3
 34      1     8       4    7   10    4
 35      1     3       8    2    9    4
 36      1     5       7    9   10    1
 37      1     7       7    3    5    3
 38      1     5       1    5    9   10
 39      1     4       4   10    6    8
 40      1     6       7    9    6    5
 41      1     3       5   10    2    8
 42      1     3       4    5   10    6
 43      1     5       4    1    2    9
 44      1     1       8    8    6    3
 45      1     2       9    8    9    1
 46      1     4       5    5    9    2
 47      1     5       3    8    3    1
 48      1     2       2    6    8    5
 49      1     5       3    4    3    8
 50      1     8       5    5    5    4
 51      1     1       7    9    4    8
 52      1     5       4    9    8    5
 53      1     5       1    6    5    5
 54      1    10       8    1    2    3
 55      1     5       4    8    8    4
 56      1     3       6    5    5    8
 57      1     6       9    9    2    7
 58      1    10       9    6    8    3
 59      1     2      10    3    5    2
 60      1     6       4    6    2    7
 61      1    10       4    6    7    4
 62      1     2       6    4   10    8
 63      1     7       4    4    3    3
 64      1     1       8    7    5    5
 65      1     2       4    7    6   10
 66      1     1       5   10    2    3
 67      1     1       8    3    7    9
 68      1     4       4    1    1   10
 69      1     5       2    5    4    9
 70      1     6       9    2    5    6
 71      1     5       9    6    2    8
 72      1     6       7    7    1    4
 73      1     1       7    2   10    5
 74      1     2       4    5    2    8
 75      1     5       8    7    8    8
 76      1     9       4    7    8    2
 77      1     4       2    9    1    1
 78      1     3       5   10    3    5
 79      1     3       6    4    5    3
 80      1    10       6    1    9    3
 81      1     1       3    7    6    1
 82      1     7       7    5    3    6
 83      1     6       4    9    9   10
 84      1     8       5    3    1    7
 85      1     1       9    4    6   10
 86      1     7       5    8    6    2
 87      1     2       9    9    3    7
 88      1     5       5    7    7    2
 89      1     1       4    1    1    7
 90      1     4       8    7   10    8
 91      1     3       9    6    6    5
 92      1     0       0    0    0    0
************************************************************************
RESOURCEAVAILABILITIES:
  R 1  R 2  R 3  R 4
   47   47   42   34
************************************************************************
